p edge 100 990
e 1 2
e 1 4
e 1 7
e 1 8
e 1 9
e 1 19
e 1 23
e 1 25
e 1 33
e 1 34
e 1 35
e 1 42
e 1 45
e 1 55
e 1 64
e 1 68
e 1 69
e 1 73
e 1 77
e 1 86
e 1 95
e 2 6
e 2 7
e 2 22
e 2 23
e 2 24
e 2 26
e 2 29
e 2 31
e 2 42
e 2 43
e 2 57
e 2 58
e 2 61
e 2 62
e 2 64
e 2 66
e 2 68
e 2 70
e 2 72
e 2 74
e 2 80
e 2 83
e 3 4
e 3 6
e 3 14
e 3 15
e 3 16
e 3 20
e 3 24
e 3 29
e 3 30
e 3 32
e 3 34
e 3 36
e 3 44
e 3 56
e 3 57
e 3 59
e 3 60
e 3 68
e 3 82
e 3 92
e 3 99
e 3 100
e 4 12
e 4 16
e 4 17
e 4 20
e 4 25
e 4 27
e 4 29
e 4 33
e 4 41
e 4 46
e 4 50
e 4 52
e 4 55
e 4 67
e 4 68
e 4 73
e 4 85
e 4 87
e 4 89
e 4 93
e 4 95
e 5 10
e 5 13
e 5 19
e 5 20
e 5 21
e 5 25
e 5 37
e 5 38
e 5 43
e 5 47
e 5 48
e 5 57
e 5 68
e 5 69
e 5 77
e 5 91
e 5 95
e 6 7
e 6 12
e 6 13
e 6 18
e 6 32
e 6 42
e 6 45
e 6 50
e 6 52
e 6 57
e 6 58
e 6 61
e 6 63
e 6 71
e 6 72
e 6 87
e 6 92
e 6 96
e 6 98
e 7 8
e 7 10
e 7 12
e 7 14
e 7 18
e 7 37
e 7 45
e 7 46
e 7 53
e 7 62
e 7 69
e 7 75
e 7 79
e 7 81
e 7 82
e 7 83
e 7 84
e 7 92
e 7 98
e 7 99
e 8 9
e 8 16
e 8 17
e 8 18
e 8 19
e 8 21
e 8 28
e 8 34
e 8 43
e 8 44
e 8 51
e 8 57
e 8 61
e 8 76
e 8 80
e 8 86
e 8 87
e 8 91
e 8 97
e 8 98
e 8 100
e 9 11
e 9 15
e 9 16
e 9 17
e 9 21
e 9 33
e 9 37
e 9 45
e 9 50
e 9 51
e 9 52
e 9 54
e 9 56
e 9 68
e 9 80
e 9 81
e 9 83
e 9 84
e 9 91
e 9 93
e 10 31
e 10 36
e 10 37
e 10 43
e 10 59
e 10 60
e 10 63
e 10 73
e 10 75
e 10 76
e 10 82
e 10 84
e 10 85
e 10 89
e 11 14
e 11 15
e 11 35
e 11 45
e 11 47
e 11 49
e 11 61
e 11 68
e 11 69
e 11 82
e 11 98
e 12 25
e 12 31
e 12 32
e 12 34
e 12 37
e 12 38
e 12 40
e 12 43
e 12 48
e 12 55
e 12 61
e 12 68
e 12 74
e 12 75
e 12 84
e 12 87
e 12 90
e 12 92
e 12 94
e 13 18
e 13 25
e 13 31
e 13 37
e 13 43
e 13 52
e 13 71
e 13 76
e 13 87
e 13 90
e 13 96
e 14 18
e 14 22
e 14 24
e 14 27
e 14 29
e 14 39
e 14 43
e 14 45
e 14 61
e 14 63
e 14 66
e 14 70
e 14 76
e 14 77
e 14 88
e 14 93
e 14 100
e 15 19
e 15 26
e 15 33
e 15 42
e 15 45
e 15 46
e 15 48
e 15 50
e 15 51
e 15 52
e 15 58
e 15 63
e 15 66
e 15 67
e 15 72
e 15 79
e 15 84
e 15 85
e 15 88
e 15 91
e 15 95
e 15 96
e 15 98
e 16 17
e 16 26
e 16 27
e 16 37
e 16 38
e 16 49
e 16 52
e 16 53
e 16 58
e 16 69
e 16 82
e 16 93
e 16 96
e 16 98
e 17 18
e 17 23
e 17 24
e 17 27
e 17 32
e 17 34
e 17 37
e 17 54
e 17 55
e 17 57
e 17 58
e 17 61
e 17 62
e 17 68
e 17 70
e 17 74
e 17 86
e 17 90
e 17 94
e 17 96
e 17 99
e 18 24
e 18 27
e 18 31
e 18 41
e 18 42
e 18 47
e 18 50
e 18 57
e 18 61
e 18 64
e 18 67
e 18 71
e 18 74
e 18 75
e 18 77
e 18 90
e 18 93
e 18 98
e 19 25
e 19 29
e 19 33
e 19 45
e 19 47
e 19 62
e 19 64
e 19 67
e 19 68
e 19 88
e 19 90
e 19 97
e 19 98
e 20 23
e 20 33
e 20 39
e 20 40
e 20 42
e 20 51
e 20 56
e 20 57
e 20 62
e 20 71
e 20 81
e 20 83
e 20 86
e 20 88
e 20 89
e 20 93
e 20 94
e 20 95
e 21 31
e 21 34
e 21 41
e 21 45
e 21 46
e 21 51
e 21 54
e 21 57
e 21 58
e 21 76
e 21 83
e 21 86
e 22 24
e 22 35
e 22 47
e 22 50
e 22 51
e 22 56
e 22 60
e 22 62
e 22 64
e 22 79
e 22 81
e 22 92
e 23 25
e 23 28
e 23 36
e 23 41
e 23 42
e 23 45
e 23 57
e 23 61
e 23 68
e 23 70
e 23 80
e 23 83
e 23 85
e 23 87
e 23 92
e 23 98
e 24 25
e 24 27
e 24 35
e 24 38
e 24 43
e 24 57
e 24 61
e 24 65
e 24 78
e 24 80
e 24 81
e 24 84
e 24 88
e 24 89
e 24 91
e 24 95
e 24 100
e 25 27
e 25 34
e 25 43
e 25 48
e 25 50
e 25 53
e 25 60
e 25 65
e 25 78
e 25 92
e 25 93
e 25 95
e 26 28
e 26 30
e 26 32
e 26 35
e 26 44
e 26 50
e 26 57
e 26 60
e 26 62
e 26 64
e 26 68
e 26 69
e 26 72
e 26 75
e 26 88
e 27 35
e 27 41
e 27 44
e 27 50
e 27 51
e 27 62
e 27 94
e 28 29
e 28 32
e 28 39
e 28 41
e 28 45
e 28 47
e 28 54
e 28 57
e 28 60
e 28 75
e 28 83
e 28 84
e 28 86
e 28 97
e 29 35
e 29 39
e 29 48
e 29 49
e 29 57
e 29 62
e 29 64
e 29 67
e 29 72
e 29 77
e 29 96
e 29 98
e 30 35
e 30 37
e 30 43
e 30 45
e 30 46
e 30 51
e 30 58
e 30 73
e 30 79
e 30 80
e 30 85
e 31 47
e 31 56
e 31 61
e 31 62
e 31 74
e 31 76
e 31 88
e 31 93
e 31 94
e 31 99
e 32 38
e 32 39
e 32 48
e 32 54
e 32 55
e 32 58
e 32 59
e 32 60
e 32 62
e 32 78
e 32 86
e 32 88
e 32 90
e 32 91
e 32 93
e 33 38
e 33 43
e 33 44
e 33 50
e 33 52
e 33 59
e 33 72
e 33 73
e 33 76
e 33 79
e 33 83
e 33 89
e 33 99
e 34 41
e 34 43
e 34 44
e 34 45
e 34 46
e 34 50
e 34 58
e 34 67
e 34 85
e 34 90
e 35 40
e 35 45
e 35 48
e 35 50
e 35 52
e 35 54
e 35 73
e 35 76
e 35 77
e 35 79
e 35 80
e 35 82
e 35 92
e 36 46
e 36 51
e 36 53
e 36 55
e 36 61
e 36 65
e 36 68
e 36 80
e 36 85
e 36 90
e 36 98
e 36 99
e 36 100
e 37 44
e 37 52
e 37 53
e 37 60
e 37 64
e 37 65
e 37 71
e 37 73
e 37 83
e 37 88
e 37 89
e 37 92
e 37 100
e 38 54
e 38 57
e 38 64
e 38 65
e 38 67
e 38 81
e 38 85
e 38 87
e 38 96
e 39 40
e 39 42
e 39 45
e 39 54
e 39 58
e 39 60
e 39 65
e 39 72
e 39 77
e 39 79
e 39 81
e 39 82
e 39 84
e 39 90
e 39 92
e 39 93
e 39 97
e 39 98
e 39 99
e 40 43
e 40 52
e 40 54
e 40 79
e 40 83
e 40 90
e 40 92
e 40 96
e 41 47
e 41 49
e 41 53
e 41 56
e 41 59
e 41 61
e 41 63
e 41 75
e 41 80
e 41 81
e 41 89
e 42 51
e 42 62
e 42 64
e 42 68
e 42 72
e 42 86
e 42 89
e 42 99
e 42 100
e 43 46
e 43 49
e 43 52
e 43 56
e 43 58
e 43 59
e 43 61
e 43 63
e 43 76
e 43 81
e 43 82
e 43 85
e 43 91
e 43 94
e 44 48
e 44 50
e 44 54
e 44 56
e 44 58
e 44 61
e 44 66
e 44 70
e 44 71
e 44 82
e 44 83
e 44 86
e 44 92
e 44 93
e 44 100
e 45 46
e 45 60
e 45 65
e 45 78
e 45 81
e 45 88
e 45 91
e 45 93
e 45 95
e 45 96
e 45 97
e 46 48
e 46 56
e 46 58
e 46 59
e 46 63
e 46 76
e 46 78
e 46 79
e 46 88
e 46 93
e 47 57
e 47 60
e 47 61
e 47 64
e 47 66
e 47 71
e 47 94
e 48 49
e 48 56
e 48 65
e 48 66
e 48 75
e 48 76
e 48 82
e 48 84
e 48 85
e 48 88
e 48 93
e 48 99
e 48 100
e 49 50
e 49 55
e 49 58
e 49 63
e 49 64
e 49 65
e 49 68
e 49 78
e 49 86
e 50 53
e 50 57
e 50 60
e 50 62
e 50 66
e 50 70
e 50 78
e 50 79
e 50 84
e 50 91
e 50 92
e 50 96
e 51 56
e 51 59
e 51 60
e 51 61
e 51 62
e 51 79
e 51 81
e 51 82
e 51 84
e 51 86
e 51 87
e 51 94
e 51 96
e 51 98
e 51 99
e 52 54
e 52 55
e 52 60
e 52 71
e 52 72
e 52 76
e 52 81
e 52 83
e 52 88
e 52 90
e 52 97
e 52 98
e 52 100
e 53 55
e 53 64
e 53 66
e 53 70
e 53 72
e 53 73
e 53 74
e 53 75
e 53 77
e 53 80
e 53 81
e 53 93
e 53 96
e 54 57
e 54 67
e 54 68
e 54 70
e 54 73
e 54 75
e 54 76
e 54 79
e 54 84
e 54 88
e 54 99
e 55 59
e 55 74
e 55 77
e 55 81
e 55 84
e 55 86
e 55 88
e 55 92
e 56 63
e 56 64
e 56 73
e 56 75
e 56 81
e 56 82
e 56 85
e 56 90
e 56 94
e 57 59
e 57 65
e 57 68
e 57 71
e 57 76
e 57 77
e 57 78
e 57 79
e 57 80
e 57 88
e 57 89
e 57 91
e 58 62
e 58 79
e 58 90
e 58 98
e 58 100
e 59 61
e 59 63
e 59 72
e 59 73
e 59 78
e 59 82
e 59 84
e 59 85
e 59 86
e 59 89
e 59 98
e 59 99
e 60 65
e 60 69
e 60 70
e 60 76
e 60 82
e 60 89
e 61 66
e 61 73
e 61 75
e 61 77
e 61 82
e 61 84
e 61 87
e 61 94
e 62 63
e 62 68
e 62 70
e 62 76
e 62 89
e 62 95
e 62 100
e 63 71
e 63 72
e 63 83
e 63 85
e 63 91
e 63 92
e 63 93
e 64 72
e 64 84
e 64 87
e 65 69
e 65 72
e 65 73
e 65 82
e 65 84
e 65 95
e 65 97
e 65 98
e 66 67
e 66 68
e 66 70
e 66 72
e 66 74
e 66 77
e 66 81
e 66 89
e 66 90
e 66 96
e 66 97
e 66 98
e 66 99
e 67 70
e 67 72
e 67 75
e 67 88
e 67 91
e 67 98
e 68 70
e 68 80
e 68 82
e 68 92
e 69 80
e 69 82
e 69 91
e 69 95
e 69 100
e 70 75
e 70 85
e 70 87
e 70 88
e 70 98
e 70 99
e 70 100
e 71 76
e 71 77
e 71 79
e 71 82
e 71 86
e 71 93
e 72 79
e 72 80
e 72 85
e 72 86
e 72 89
e 72 92
e 72 93
e 72 94
e 72 100
e 73 86
e 73 93
e 73 98
e 73 99
e 74 78
e 74 79
e 74 89
e 74 90
e 74 97
e 75 77
e 75 88
e 75 98
e 76 77
e 76 85
e 76 86
e 76 89
e 76 92
e 76 97
e 77 81
e 77 83
e 77 84
e 77 85
e 77 86
e 77 87
e 77 90
e 77 96
e 78 80
e 78 91
e 78 92
e 78 94
e 78 100
e 79 86
e 79 90
e 79 92
e 79 94
e 79 99
e 80 84
e 80 87
e 80 90
e 80 92
e 80 96
e 80 99
e 80 100
e 81 87
e 81 94
e 81 97
e 82 84
e 82 85
e 82 100
e 83 84
e 83 85
e 83 90
e 83 96
e 84 92
e 84 93
e 84 96
e 85 88
e 85 89
e 86 88
e 86 91
e 86 96
e 86 99
e 86 100
e 87 91
e 87 96
e 88 90
e 88 94
e 88 96
e 90 91
e 90 95
e 90 96
e 92 95
e 92 96
e 92 99
e 93 95
e 93 97
e 94 96
e 95 96
e 98 100
